
%FILE DATA:	Soccer Computational Problem for MiniZinc Models	%
%AUTHOR:	Jack Wall	%
%CONTACT:  	116397063@umail.ucc.ie			%
%LAST UPDATE:	03/03/2020, 12:29:48						%
%DESCRIPTION: 	60 games played with 30 games left				%


n=10; %number of teams

%Games to play
games=[|1,3|7,6|9,10|8,5|10,9|9,5|8,6|7,3|5,4|9,4|4,10|1,4|1,6|4,3|7,2|8,1|5,7|10,3|9,6|9,1|3,7|2,3|3,6|8,7|4,1|1,10|8,3|5,6|10,8|4,6|];

%Initial points
iPoints=[13,22,13,15,20,10,19,13,21,18];

%POSITION CONSTRAINTS
% [|teamID, operator, position|...]
% operators index:
%  1 for =  operator
%  2 for >  operator
%  3 for >= operator
%  4 for <  operator
%  5 for <= operator
positionConstraints=[|9,3,1|10,3,2|8,1,3|5,3,4|];